p cnf 363 1562
1 45 0 
5 49 0 
9 53 0 
13 57 0 
17 61 0 
21 65 0 
25 69 0 
29 73 0 
33 77 0 
37 81 0 
41 85 0 
2 46 0 
6 50 0 
10 54 0 
14 58 0 
18 62 0 
22 66 0 
26 70 0 
30 74 0 
34 78 0 
38 82 0 
42 86 0 
3 47 0 
7 51 0 
11 55 0 
15 59 0 
19 63 0 
23 67 0 
27 71 0 
31 75 0 
35 79 0 
39 83 0 
43 87 0 
4 48 0 
8 52 0 
12 56 0 
16 60 0 
20 64 0 
24 68 0 
28 72 0 
32 76 0 
36 80 0 
40 84 0 
44 88 0 
-89 -1 -2 -3 -4 0 
-92 -5 -6 -7 -8 0 
-95 -9 -10 -11 -12 0 
-98 -13 -14 -15 -16 0 
-101 -17 -18 -19 -20 0 
-104 -21 -22 -23 -24 0 
-107 -25 -26 -27 -28 0 
-110 -29 -30 -31 -32 0 
-113 -33 -34 -35 -36 0 
-116 -37 -38 -39 -40 0 
-119 -41 -42 -43 -44 0 
-89 -1 -2 -3 -48 0 
-92 -5 -6 -7 -52 0 
-95 -9 -10 -11 -56 0 
-98 -13 -14 -15 -60 0 
-101 -17 -18 -19 -64 0 
-104 -21 -22 -23 -68 0 
-107 -25 -26 -27 -72 0 
-110 -29 -30 -31 -76 0 
-113 -33 -34 -35 -80 0 
-116 -37 -38 -39 -84 0 
-119 -41 -42 -43 -88 0 
-89 -1 -2 -47 -4 0 
-92 -5 -6 -51 -8 0 
-95 -9 -10 -55 -12 0 
-98 -13 -14 -59 -16 0 
-101 -17 -18 -63 -20 0 
-104 -21 -22 -67 -24 0 
-107 -25 -26 -71 -28 0 
-110 -29 -30 -75 -32 0 
-113 -33 -34 -79 -36 0 
-116 -37 -38 -83 -40 0 
-119 -41 -42 -87 -44 0 
-89 -1 -2 -47 -48 0 
-92 -5 -6 -51 -52 0 
-95 -9 -10 -55 -56 0 
-98 -13 -14 -59 -60 0 
-101 -17 -18 -63 -64 0 
-104 -21 -22 -67 -68 0 
-107 -25 -26 -71 -72 0 
-110 -29 -30 -75 -76 0 
-113 -33 -34 -79 -80 0 
-116 -37 -38 -83 -84 0 
-119 -41 -42 -87 -88 0 
-89 -1 -46 -3 -4 0 
-92 -5 -50 -7 -8 0 
-95 -9 -54 -11 -12 0 
-98 -13 -58 -15 -16 0 
-101 -17 -62 -19 -20 0 
-104 -21 -66 -23 -24 0 
-107 -25 -70 -27 -28 0 
-110 -29 -74 -31 -32 0 
-113 -33 -78 -35 -36 0 
-116 -37 -82 -39 -40 0 
-119 -41 -86 -43 -44 0 
-89 -1 -46 -3 -48 0 
-92 -5 -50 -7 -52 0 
-95 -9 -54 -11 -56 0 
-98 -13 -58 -15 -60 0 
-101 -17 -62 -19 -64 0 
-104 -21 -66 -23 -68 0 
-107 -25 -70 -27 -72 0 
-110 -29 -74 -31 -76 0 
-113 -33 -78 -35 -80 0 
-116 -37 -82 -39 -84 0 
-119 -41 -86 -43 -88 0 
-89 -1 -46 -47 -4 0 
-92 -5 -50 -51 -8 0 
-95 -9 -54 -55 -12 0 
-98 -13 -58 -59 -16 0 
-101 -17 -62 -63 -20 0 
-104 -21 -66 -67 -24 0 
-107 -25 -70 -71 -28 0 
-110 -29 -74 -75 -32 0 
-113 -33 -78 -79 -36 0 
-116 -37 -82 -83 -40 0 
-119 -41 -86 -87 -44 0 
-89 -45 -2 -3 -4 0 
-92 -49 -6 -7 -8 0 
-95 -53 -10 -11 -12 0 
-98 -57 -14 -15 -16 0 
-101 -61 -18 -19 -20 0 
-104 -65 -22 -23 -24 0 
-107 -69 -26 -27 -28 0 
-110 -73 -30 -31 -32 0 
-113 -77 -34 -35 -36 0 
-116 -81 -38 -39 -40 0 
-119 -85 -42 -43 -44 0 
-89 -45 -2 -3 -48 0 
-92 -49 -6 -7 -52 0 
-95 -53 -10 -11 -56 0 
-98 -57 -14 -15 -60 0 
-101 -61 -18 -19 -64 0 
-104 -65 -22 -23 -68 0 
-107 -69 -26 -27 -72 0 
-110 -73 -30 -31 -76 0 
-113 -77 -34 -35 -80 0 
-116 -81 -38 -39 -84 0 
-119 -85 -42 -43 -88 0 
-89 -45 -46 -3 -4 0 
-92 -49 -50 -7 -8 0 
-95 -53 -54 -11 -12 0 
-98 -57 -58 -15 -16 0 
-101 -61 -62 -19 -20 0 
-104 -65 -66 -23 -24 0 
-107 -69 -70 -27 -28 0 
-110 -73 -74 -31 -32 0 
-113 -77 -78 -35 -36 0 
-116 -81 -82 -39 -40 0 
-119 -85 -86 -43 -44 0 
-90 -1 -2 -3 -4 0 
-93 -5 -6 -7 -8 0 
-96 -9 -10 -11 -12 0 
-99 -13 -14 -15 -16 0 
-102 -17 -18 -19 -20 0 
-105 -21 -22 -23 -24 0 
-108 -25 -26 -27 -28 0 
-111 -29 -30 -31 -32 0 
-114 -33 -34 -35 -36 0 
-117 -37 -38 -39 -40 0 
-120 -41 -42 -43 -44 0 
-90 -1 -2 -3 -48 0 
-93 -5 -6 -7 -52 0 
-96 -9 -10 -11 -56 0 
-99 -13 -14 -15 -60 0 
-102 -17 -18 -19 -64 0 
-105 -21 -22 -23 -68 0 
-108 -25 -26 -27 -72 0 
-111 -29 -30 -31 -76 0 
-114 -33 -34 -35 -80 0 
-117 -37 -38 -39 -84 0 
-120 -41 -42 -43 -88 0 
-90 -1 -46 -3 -4 0 
-93 -5 -50 -7 -8 0 
-96 -9 -54 -11 -12 0 
-99 -13 -58 -15 -16 0 
-102 -17 -62 -19 -20 0 
-105 -21 -66 -23 -24 0 
-108 -25 -70 -27 -28 0 
-111 -29 -74 -31 -32 0 
-114 -33 -78 -35 -36 0 
-117 -37 -82 -39 -40 0 
-120 -41 -86 -43 -44 0 
-90 -1 -46 -47 -48 0 
-93 -5 -50 -51 -52 0 
-96 -9 -54 -55 -56 0 
-99 -13 -58 -59 -60 0 
-102 -17 -62 -63 -64 0 
-105 -21 -66 -67 -68 0 
-108 -25 -70 -71 -72 0 
-111 -29 -74 -75 -76 0 
-114 -33 -78 -79 -80 0 
-117 -37 -82 -83 -84 0 
-120 -41 -86 -87 -88 0 
-90 -45 -2 -47 -4 0 
-93 -49 -6 -51 -8 0 
-96 -53 -10 -55 -12 0 
-99 -57 -14 -59 -16 0 
-102 -61 -18 -63 -20 0 
-105 -65 -22 -67 -24 0 
-108 -69 -26 -71 -28 0 
-111 -73 -30 -75 -32 0 
-114 -77 -34 -79 -36 0 
-117 -81 -38 -83 -40 0 
-120 -85 -42 -87 -44 0 
-90 -45 -2 -47 -48 0 
-93 -49 -6 -51 -52 0 
-96 -53 -10 -55 -56 0 
-99 -57 -14 -59 -60 0 
-102 -61 -18 -63 -64 0 
-105 -65 -22 -67 -68 0 
-108 -69 -26 -71 -72 0 
-111 -73 -30 -75 -76 0 
-114 -77 -34 -79 -80 0 
-117 -81 -38 -83 -84 0 
-120 -85 -42 -87 -88 0 
-90 -45 -46 -3 -48 0 
-93 -49 -50 -7 -52 0 
-96 -53 -54 -11 -56 0 
-99 -57 -58 -15 -60 0 
-102 -61 -62 -19 -64 0 
-105 -65 -66 -23 -68 0 
-108 -69 -70 -27 -72 0 
-111 -73 -74 -31 -76 0 
-114 -77 -78 -35 -80 0 
-117 -81 -82 -39 -84 0 
-120 -85 -86 -43 -88 0 
-90 -45 -46 -47 -4 0 
-93 -49 -50 -51 -8 0 
-96 -53 -54 -55 -12 0 
-99 -57 -58 -59 -16 0 
-102 -61 -62 -63 -20 0 
-105 -65 -66 -67 -24 0 
-108 -69 -70 -71 -28 0 
-111 -73 -74 -75 -32 0 
-114 -77 -78 -79 -36 0 
-117 -81 -82 -83 -40 0 
-120 -85 -86 -87 -44 0 
-91 -1 -2 -3 -4 0 
-94 -5 -6 -7 -8 0 
-97 -9 -10 -11 -12 0 
-100 -13 -14 -15 -16 0 
-103 -17 -18 -19 -20 0 
-106 -21 -22 -23 -24 0 
-109 -25 -26 -27 -28 0 
-112 -29 -30 -31 -32 0 
-115 -33 -34 -35 -36 0 
-118 -37 -38 -39 -40 0 
-121 -41 -42 -43 -44 0 
-91 -1 -2 -47 -4 0 
-94 -5 -6 -51 -8 0 
-97 -9 -10 -55 -12 0 
-100 -13 -14 -59 -16 0 
-103 -17 -18 -63 -20 0 
-106 -21 -22 -67 -24 0 
-109 -25 -26 -71 -28 0 
-112 -29 -30 -75 -32 0 
-115 -33 -34 -79 -36 0 
-118 -37 -38 -83 -40 0 
-121 -41 -42 -87 -44 0 
-91 -1 -46 -3 -48 0 
-94 -5 -50 -7 -52 0 
-97 -9 -54 -11 -56 0 
-100 -13 -58 -15 -60 0 
-103 -17 -62 -19 -64 0 
-106 -21 -66 -23 -68 0 
-109 -25 -70 -27 -72 0 
-112 -29 -74 -31 -76 0 
-115 -33 -78 -35 -80 0 
-118 -37 -82 -39 -84 0 
-121 -41 -86 -43 -88 0 
-91 -1 -46 -47 -48 0 
-94 -5 -50 -51 -52 0 
-97 -9 -54 -55 -56 0 
-100 -13 -58 -59 -60 0 
-103 -17 -62 -63 -64 0 
-106 -21 -66 -67 -68 0 
-109 -25 -70 -71 -72 0 
-112 -29 -74 -75 -76 0 
-115 -33 -78 -79 -80 0 
-118 -37 -82 -83 -84 0 
-121 -41 -86 -87 -88 0 
-91 -45 -2 -3 -4 0 
-94 -49 -6 -7 -8 0 
-97 -53 -10 -11 -12 0 
-100 -57 -14 -15 -16 0 
-103 -61 -18 -19 -20 0 
-106 -65 -22 -23 -24 0 
-109 -69 -26 -27 -28 0 
-112 -73 -30 -31 -32 0 
-115 -77 -34 -35 -36 0 
-118 -81 -38 -39 -40 0 
-121 -85 -42 -43 -44 0 
-91 -45 -2 -47 -4 0 
-94 -49 -6 -51 -8 0 
-97 -53 -10 -55 -12 0 
-100 -57 -14 -59 -16 0 
-103 -61 -18 -63 -20 0 
-106 -65 -22 -67 -24 0 
-109 -69 -26 -71 -28 0 
-112 -73 -30 -75 -32 0 
-115 -77 -34 -79 -36 0 
-118 -81 -38 -83 -40 0 
-121 -85 -42 -87 -44 0 
-91 -45 -46 -3 -48 0 
-94 -49 -50 -7 -52 0 
-97 -53 -54 -11 -56 0 
-100 -57 -58 -15 -60 0 
-103 -61 -62 -19 -64 0 
-106 -65 -66 -23 -68 0 
-109 -69 -70 -27 -72 0 
-112 -73 -74 -31 -76 0 
-115 -77 -78 -35 -80 0 
-118 -81 -82 -39 -84 0 
-121 -85 -86 -43 -88 0 
-91 -45 -46 -47 -48 0 
-94 -49 -50 -51 -52 0 
-97 -53 -54 -55 -56 0 
-100 -57 -58 -59 -60 0 
-103 -61 -62 -63 -64 0 
-106 -65 -66 -67 -68 0 
-109 -69 -70 -71 -72 0 
-112 -73 -74 -75 -76 0 
-115 -77 -78 -79 -80 0 
-118 -81 -82 -83 -84 0 
-121 -85 -86 -87 -88 0 
210 211 212 213 214 215 216 217 218 219 220 0 
254 255 256 257 258 259 260 261 262 263 264 0 
265 267 269 271 273 275 277 279 281 283 285 0 
309 310 311 312 313 314 315 316 317 318 319 0 
320 322 324 326 328 330 332 334 336 338 340 0 
342 344 346 348 350 352 354 356 358 360 362 0 
133 134 135 136 137 138 139 140 141 142 143 0 
144 146 148 150 152 154 156 158 160 162 164 0 
177 178 179 180 181 182 183 184 185 186 187 0 
188 190 192 194 196 198 200 202 204 206 208 0 
221 222 223 224 225 226 227 228 229 230 231 0 
232 234 236 238 240 242 244 246 248 250 252 0 
287 289 291 293 295 297 299 301 303 305 307 0 
343 345 347 349 351 353 355 357 359 361 363 0 
122 123 124 125 126 127 128 129 130 131 132 0 
145 147 149 151 153 155 157 159 161 163 165 0 
166 167 168 169 170 171 172 173 174 175 176 0 
189 191 193 195 197 199 201 203 205 207 209 0 
233 235 237 239 241 243 245 247 249 251 253 0 
266 268 270 272 274 276 278 280 282 284 286 0 
288 290 292 294 296 298 300 302 304 306 308 0 
321 323 325 327 329 331 333 335 337 339 341 0 
-210 89 0 
-211 92 0 
-212 95 0 
-213 98 0 
-214 101 0 
-215 104 0 
-216 107 0 
-217 110 0 
-218 113 0 
-219 116 0 
-220 119 0 
-254 89 0 
-255 92 0 
-256 95 0 
-257 98 0 
-258 101 0 
-259 104 0 
-260 107 0 
-261 110 0 
-262 113 0 
-263 116 0 
-264 119 0 
-265 89 0 
-267 92 0 
-269 95 0 
-271 98 0 
-273 101 0 
-275 104 0 
-277 107 0 
-279 110 0 
-281 113 0 
-283 116 0 
-285 119 0 
-309 89 0 
-310 92 0 
-311 95 0 
-312 98 0 
-313 101 0 
-314 104 0 
-315 107 0 
-316 110 0 
-317 113 0 
-318 116 0 
-319 119 0 
-320 89 0 
-322 92 0 
-324 95 0 
-326 98 0 
-328 101 0 
-330 104 0 
-332 107 0 
-334 110 0 
-336 113 0 
-338 116 0 
-340 119 0 
-342 89 0 
-344 92 0 
-346 95 0 
-348 98 0 
-350 101 0 
-352 104 0 
-354 107 0 
-356 110 0 
-358 113 0 
-360 116 0 
-362 119 0 
-133 90 0 
-134 93 0 
-135 96 0 
-136 99 0 
-137 102 0 
-138 105 0 
-139 108 0 
-140 111 0 
-141 114 0 
-142 117 0 
-143 120 0 
-144 90 0 
-146 93 0 
-148 96 0 
-150 99 0 
-152 102 0 
-154 105 0 
-156 108 0 
-158 111 0 
-160 114 0 
-162 117 0 
-164 120 0 
-177 90 0 
-178 93 0 
-179 96 0 
-180 99 0 
-181 102 0 
-182 105 0 
-183 108 0 
-184 111 0 
-185 114 0 
-186 117 0 
-187 120 0 
-188 90 0 
-190 93 0 
-192 96 0 
-194 99 0 
-196 102 0 
-198 105 0 
-200 108 0 
-202 111 0 
-204 114 0 
-206 117 0 
-208 120 0 
-221 90 0 
-222 93 0 
-223 96 0 
-224 99 0 
-225 102 0 
-226 105 0 
-227 108 0 
-228 111 0 
-229 114 0 
-230 117 0 
-231 120 0 
-232 90 0 
-234 93 0 
-236 96 0 
-238 99 0 
-240 102 0 
-242 105 0 
-244 108 0 
-246 111 0 
-248 114 0 
-250 117 0 
-252 120 0 
-287 90 0 
-289 93 0 
-291 96 0 
-293 99 0 
-295 102 0 
-297 105 0 
-299 108 0 
-301 111 0 
-303 114 0 
-305 117 0 
-307 120 0 
-343 90 0 
-345 93 0 
-347 96 0 
-349 99 0 
-351 102 0 
-353 105 0 
-355 108 0 
-357 111 0 
-359 114 0 
-361 117 0 
-363 120 0 
-122 91 0 
-123 94 0 
-124 97 0 
-125 100 0 
-126 103 0 
-127 106 0 
-128 109 0 
-129 112 0 
-130 115 0 
-131 118 0 
-132 121 0 
-145 91 0 
-147 94 0 
-149 97 0 
-151 100 0 
-153 103 0 
-155 106 0 
-157 109 0 
-159 112 0 
-161 115 0 
-163 118 0 
-165 121 0 
-166 91 0 
-167 94 0 
-168 97 0 
-169 100 0 
-170 103 0 
-171 106 0 
-172 109 0 
-173 112 0 
-174 115 0 
-175 118 0 
-176 121 0 
-189 91 0 
-191 94 0 
-193 97 0 
-195 100 0 
-197 103 0 
-199 106 0 
-201 109 0 
-203 112 0 
-205 115 0 
-207 118 0 
-209 121 0 
-233 91 0 
-235 94 0 
-237 97 0 
-239 100 0 
-241 103 0 
-243 106 0 
-245 109 0 
-247 112 0 
-249 115 0 
-251 118 0 
-253 121 0 
-266 91 0 
-268 94 0 
-270 97 0 
-272 100 0 
-274 103 0 
-276 106 0 
-278 109 0 
-280 112 0 
-282 115 0 
-284 118 0 
-286 121 0 
-288 91 0 
-290 94 0 
-292 97 0 
-294 100 0 
-296 103 0 
-298 106 0 
-300 109 0 
-302 112 0 
-304 115 0 
-306 118 0 
-308 121 0 
-321 91 0 
-323 94 0 
-325 97 0 
-327 100 0 
-329 103 0 
-331 106 0 
-333 109 0 
-335 112 0 
-337 115 0 
-339 118 0 
-341 121 0 
-210 1 0 
-211 5 0 
-212 9 0 
-213 13 0 
-214 17 0 
-215 21 0 
-216 25 0 
-217 29 0 
-218 33 0 
-219 37 0 
-220 41 0 
-210 46 0 
-211 50 0 
-212 54 0 
-213 58 0 
-214 62 0 
-215 66 0 
-216 70 0 
-217 74 0 
-218 78 0 
-219 82 0 
-220 86 0 
-210 47 0 
-211 51 0 
-212 55 0 
-213 59 0 
-214 63 0 
-215 67 0 
-216 71 0 
-217 75 0 
-218 79 0 
-219 83 0 
-220 87 0 
-210 48 0 
-211 52 0 
-212 56 0 
-213 60 0 
-214 64 0 
-215 68 0 
-216 72 0 
-217 76 0 
-218 80 0 
-219 84 0 
-220 88 0 
-254 45 0 
-255 49 0 
-256 53 0 
-257 57 0 
-258 61 0 
-259 65 0 
-260 69 0 
-261 73 0 
-262 77 0 
-263 81 0 
-264 85 0 
-254 2 0 
-255 6 0 
-256 10 0 
-257 14 0 
-258 18 0 
-259 22 0 
-260 26 0 
-261 30 0 
-262 34 0 
-263 38 0 
-264 42 0 
-254 47 0 
-255 51 0 
-256 55 0 
-257 59 0 
-258 63 0 
-259 67 0 
-260 71 0 
-261 75 0 
-262 79 0 
-263 83 0 
-264 87 0 
-254 4 0 
-255 8 0 
-256 12 0 
-257 16 0 
-258 20 0 
-259 24 0 
-260 28 0 
-261 32 0 
-262 36 0 
-263 40 0 
-264 44 0 
-265 45 0 
-267 49 0 
-269 53 0 
-271 57 0 
-273 61 0 
-275 65 0 
-277 69 0 
-279 73 0 
-281 77 0 
-283 81 0 
-285 85 0 
-265 2 0 
-267 6 0 
-269 10 0 
-271 14 0 
-273 18 0 
-275 22 0 
-277 26 0 
-279 30 0 
-281 34 0 
-283 38 0 
-285 42 0 
-265 47 0 
-267 51 0 
-269 55 0 
-271 59 0 
-273 63 0 
-275 67 0 
-277 71 0 
-279 75 0 
-281 79 0 
-283 83 0 
-285 87 0 
-265 48 0 
-267 52 0 
-269 56 0 
-271 60 0 
-273 64 0 
-275 68 0 
-277 72 0 
-279 76 0 
-281 80 0 
-283 84 0 
-285 88 0 
-309 45 0 
-310 49 0 
-311 53 0 
-312 57 0 
-313 61 0 
-314 65 0 
-315 69 0 
-316 73 0 
-317 77 0 
-318 81 0 
-319 85 0 
-309 46 0 
-310 50 0 
-311 54 0 
-312 58 0 
-313 62 0 
-314 66 0 
-315 70 0 
-316 74 0 
-317 78 0 
-318 82 0 
-319 86 0 
-309 3 0 
-310 7 0 
-311 11 0 
-312 15 0 
-313 19 0 
-314 23 0 
-315 27 0 
-316 31 0 
-317 35 0 
-318 39 0 
-319 43 0 
-309 48 0 
-310 52 0 
-311 56 0 
-312 60 0 
-313 64 0 
-314 68 0 
-315 72 0 
-316 76 0 
-317 80 0 
-318 84 0 
-319 88 0 
-320 45 0 
-322 49 0 
-324 53 0 
-326 57 0 
-328 61 0 
-330 65 0 
-332 69 0 
-334 73 0 
-336 77 0 
-338 81 0 
-340 85 0 
-320 46 0 
-322 50 0 
-324 54 0 
-326 58 0 
-328 62 0 
-330 66 0 
-332 70 0 
-334 74 0 
-336 78 0 
-338 82 0 
-340 86 0 
-320 47 0 
-322 51 0 
-324 55 0 
-326 59 0 
-328 63 0 
-330 67 0 
-332 71 0 
-334 75 0 
-336 79 0 
-338 83 0 
-340 87 0 
-320 4 0 
-322 8 0 
-324 12 0 
-326 16 0 
-328 20 0 
-330 24 0 
-332 28 0 
-334 32 0 
-336 36 0 
-338 40 0 
-340 44 0 
-342 45 0 
-344 49 0 
-346 53 0 
-348 57 0 
-350 61 0 
-352 65 0 
-354 69 0 
-356 73 0 
-358 77 0 
-360 81 0 
-362 85 0 
-342 46 0 
-344 50 0 
-346 54 0 
-348 58 0 
-350 62 0 
-352 66 0 
-354 70 0 
-356 74 0 
-358 78 0 
-360 82 0 
-362 86 0 
-342 47 0 
-344 51 0 
-346 55 0 
-348 59 0 
-350 63 0 
-352 67 0 
-354 71 0 
-356 75 0 
-358 79 0 
-360 83 0 
-362 87 0 
-342 48 0 
-344 52 0 
-346 56 0 
-348 60 0 
-350 64 0 
-352 68 0 
-354 72 0 
-356 76 0 
-358 80 0 
-360 84 0 
-362 88 0 
-133 1 0 
-134 5 0 
-135 9 0 
-136 13 0 
-137 17 0 
-138 21 0 
-139 25 0 
-140 29 0 
-141 33 0 
-142 37 0 
-143 41 0 
-133 2 0 
-134 6 0 
-135 10 0 
-136 14 0 
-137 18 0 
-138 22 0 
-139 26 0 
-140 30 0 
-141 34 0 
-142 38 0 
-143 42 0 
-133 47 0 
-134 51 0 
-135 55 0 
-136 59 0 
-137 63 0 
-138 67 0 
-139 71 0 
-140 75 0 
-141 79 0 
-142 83 0 
-143 87 0 
-133 4 0 
-134 8 0 
-135 12 0 
-136 16 0 
-137 20 0 
-138 24 0 
-139 28 0 
-140 32 0 
-141 36 0 
-142 40 0 
-143 44 0 
-144 1 0 
-146 5 0 
-148 9 0 
-150 13 0 
-152 17 0 
-154 21 0 
-156 25 0 
-158 29 0 
-160 33 0 
-162 37 0 
-164 41 0 
-144 2 0 
-146 6 0 
-148 10 0 
-150 14 0 
-152 18 0 
-154 22 0 
-156 26 0 
-158 30 0 
-160 34 0 
-162 38 0 
-164 42 0 
-144 47 0 
-146 51 0 
-148 55 0 
-150 59 0 
-152 63 0 
-154 67 0 
-156 71 0 
-158 75 0 
-160 79 0 
-162 83 0 
-164 87 0 
-144 48 0 
-146 52 0 
-148 56 0 
-150 60 0 
-152 64 0 
-154 68 0 
-156 72 0 
-158 76 0 
-160 80 0 
-162 84 0 
-164 88 0 
-177 1 0 
-178 5 0 
-179 9 0 
-180 13 0 
-181 17 0 
-182 21 0 
-183 25 0 
-184 29 0 
-185 33 0 
-186 37 0 
-187 41 0 
-177 46 0 
-178 50 0 
-179 54 0 
-180 58 0 
-181 62 0 
-182 66 0 
-183 70 0 
-184 74 0 
-185 78 0 
-186 82 0 
-187 86 0 
-177 3 0 
-178 7 0 
-179 11 0 
-180 15 0 
-181 19 0 
-182 23 0 
-183 27 0 
-184 31 0 
-185 35 0 
-186 39 0 
-187 43 0 
-177 48 0 
-178 52 0 
-179 56 0 
-180 60 0 
-181 64 0 
-182 68 0 
-183 72 0 
-184 76 0 
-185 80 0 
-186 84 0 
-187 88 0 
-188 1 0 
-190 5 0 
-192 9 0 
-194 13 0 
-196 17 0 
-198 21 0 
-200 25 0 
-202 29 0 
-204 33 0 
-206 37 0 
-208 41 0 
-188 46 0 
-190 50 0 
-192 54 0 
-194 58 0 
-196 62 0 
-198 66 0 
-200 70 0 
-202 74 0 
-204 78 0 
-206 82 0 
-208 86 0 
-188 47 0 
-190 51 0 
-192 55 0 
-194 59 0 
-196 63 0 
-198 67 0 
-200 71 0 
-202 75 0 
-204 79 0 
-206 83 0 
-208 87 0 
-188 4 0 
-190 8 0 
-192 12 0 
-194 16 0 
-196 20 0 
-198 24 0 
-200 28 0 
-202 32 0 
-204 36 0 
-206 40 0 
-208 44 0 
-221 45 0 
-222 49 0 
-223 53 0 
-224 57 0 
-225 61 0 
-226 65 0 
-227 69 0 
-228 73 0 
-229 77 0 
-230 81 0 
-231 85 0 
-221 2 0 
-222 6 0 
-223 10 0 
-224 14 0 
-225 18 0 
-226 22 0 
-227 26 0 
-228 30 0 
-229 34 0 
-230 38 0 
-231 42 0 
-221 3 0 
-222 7 0 
-223 11 0 
-224 15 0 
-225 19 0 
-226 23 0 
-227 27 0 
-228 31 0 
-229 35 0 
-230 39 0 
-231 43 0 
-221 4 0 
-222 8 0 
-223 12 0 
-224 16 0 
-225 20 0 
-226 24 0 
-227 28 0 
-228 32 0 
-229 36 0 
-230 40 0 
-231 44 0 
-232 45 0 
-234 49 0 
-236 53 0 
-238 57 0 
-240 61 0 
-242 65 0 
-244 69 0 
-246 73 0 
-248 77 0 
-250 81 0 
-252 85 0 
-232 2 0 
-234 6 0 
-236 10 0 
-238 14 0 
-240 18 0 
-242 22 0 
-244 26 0 
-246 30 0 
-248 34 0 
-250 38 0 
-252 42 0 
-232 3 0 
-234 7 0 
-236 11 0 
-238 15 0 
-240 19 0 
-242 23 0 
-244 27 0 
-246 31 0 
-248 35 0 
-250 39 0 
-252 43 0 
-232 48 0 
-234 52 0 
-236 56 0 
-238 60 0 
-240 64 0 
-242 68 0 
-244 72 0 
-246 76 0 
-248 80 0 
-250 84 0 
-252 88 0 
-287 45 0 
-289 49 0 
-291 53 0 
-293 57 0 
-295 61 0 
-297 65 0 
-299 69 0 
-301 73 0 
-303 77 0 
-305 81 0 
-307 85 0 
-287 46 0 
-289 50 0 
-291 54 0 
-293 58 0 
-295 62 0 
-297 66 0 
-299 70 0 
-301 74 0 
-303 78 0 
-305 82 0 
-307 86 0 
-287 3 0 
-289 7 0 
-291 11 0 
-293 15 0 
-295 19 0 
-297 23 0 
-299 27 0 
-301 31 0 
-303 35 0 
-305 39 0 
-307 43 0 
-287 4 0 
-289 8 0 
-291 12 0 
-293 16 0 
-295 20 0 
-297 24 0 
-299 28 0 
-301 32 0 
-303 36 0 
-305 40 0 
-307 44 0 
-343 45 0 
-345 49 0 
-347 53 0 
-349 57 0 
-351 61 0 
-353 65 0 
-355 69 0 
-357 73 0 
-359 77 0 
-361 81 0 
-363 85 0 
-343 46 0 
-345 50 0 
-347 54 0 
-349 58 0 
-351 62 0 
-353 66 0 
-355 70 0 
-357 74 0 
-359 78 0 
-361 82 0 
-363 86 0 
-343 47 0 
-345 51 0 
-347 55 0 
-349 59 0 
-351 63 0 
-353 67 0 
-355 71 0 
-357 75 0 
-359 79 0 
-361 83 0 
-363 87 0 
-343 48 0 
-345 52 0 
-347 56 0 
-349 60 0 
-351 64 0 
-353 68 0 
-355 72 0 
-357 76 0 
-359 80 0 
-361 84 0 
-363 88 0 
-122 1 0 
-123 5 0 
-124 9 0 
-125 13 0 
-126 17 0 
-127 21 0 
-128 25 0 
-129 29 0 
-130 33 0 
-131 37 0 
-132 41 0 
-122 2 0 
-123 6 0 
-124 10 0 
-125 14 0 
-126 18 0 
-127 22 0 
-128 26 0 
-129 30 0 
-130 34 0 
-131 38 0 
-132 42 0 
-122 3 0 
-123 7 0 
-124 11 0 
-125 15 0 
-126 19 0 
-127 23 0 
-128 27 0 
-129 31 0 
-130 35 0 
-131 39 0 
-132 43 0 
-122 48 0 
-123 52 0 
-124 56 0 
-125 60 0 
-126 64 0 
-127 68 0 
-128 72 0 
-129 76 0 
-130 80 0 
-131 84 0 
-132 88 0 
-145 1 0 
-147 5 0 
-149 9 0 
-151 13 0 
-153 17 0 
-155 21 0 
-157 25 0 
-159 29 0 
-161 33 0 
-163 37 0 
-165 41 0 
-145 2 0 
-147 6 0 
-149 10 0 
-151 14 0 
-153 18 0 
-155 22 0 
-157 26 0 
-159 30 0 
-161 34 0 
-163 38 0 
-165 42 0 
-145 47 0 
-147 51 0 
-149 55 0 
-151 59 0 
-153 63 0 
-155 67 0 
-157 71 0 
-159 75 0 
-161 79 0 
-163 83 0 
-165 87 0 
-145 48 0 
-147 52 0 
-149 56 0 
-151 60 0 
-153 64 0 
-155 68 0 
-157 72 0 
-159 76 0 
-161 80 0 
-163 84 0 
-165 88 0 
-166 1 0 
-167 5 0 
-168 9 0 
-169 13 0 
-170 17 0 
-171 21 0 
-172 25 0 
-173 29 0 
-174 33 0 
-175 37 0 
-176 41 0 
-166 46 0 
-167 50 0 
-168 54 0 
-169 58 0 
-170 62 0 
-171 66 0 
-172 70 0 
-173 74 0 
-174 78 0 
-175 82 0 
-176 86 0 
-166 3 0 
-167 7 0 
-168 11 0 
-169 15 0 
-170 19 0 
-171 23 0 
-172 27 0 
-173 31 0 
-174 35 0 
-175 39 0 
-176 43 0 
-166 4 0 
-167 8 0 
-168 12 0 
-169 16 0 
-170 20 0 
-171 24 0 
-172 28 0 
-173 32 0 
-174 36 0 
-175 40 0 
-176 44 0 
-189 1 0 
-191 5 0 
-193 9 0 
-195 13 0 
-197 17 0 
-199 21 0 
-201 25 0 
-203 29 0 
-205 33 0 
-207 37 0 
-209 41 0 
-189 46 0 
-191 50 0 
-193 54 0 
-195 58 0 
-197 62 0 
-199 66 0 
-201 70 0 
-203 74 0 
-205 78 0 
-207 82 0 
-209 86 0 
-189 47 0 
-191 51 0 
-193 55 0 
-195 59 0 
-197 63 0 
-199 67 0 
-201 71 0 
-203 75 0 
-205 79 0 
-207 83 0 
-209 87 0 
-189 4 0 
-191 8 0 
-193 12 0 
-195 16 0 
-197 20 0 
-199 24 0 
-201 28 0 
-203 32 0 
-205 36 0 
-207 40 0 
-209 44 0 
-233 45 0 
-235 49 0 
-237 53 0 
-239 57 0 
-241 61 0 
-243 65 0 
-245 69 0 
-247 73 0 
-249 77 0 
-251 81 0 
-253 85 0 
-233 2 0 
-235 6 0 
-237 10 0 
-239 14 0 
-241 18 0 
-243 22 0 
-245 26 0 
-247 30 0 
-249 34 0 
-251 38 0 
-253 42 0 
-233 3 0 
-235 7 0 
-237 11 0 
-239 15 0 
-241 19 0 
-243 23 0 
-245 27 0 
-247 31 0 
-249 35 0 
-251 39 0 
-253 43 0 
-233 48 0 
-235 52 0 
-237 56 0 
-239 60 0 
-241 64 0 
-243 68 0 
-245 72 0 
-247 76 0 
-249 80 0 
-251 84 0 
-253 88 0 
-266 45 0 
-268 49 0 
-270 53 0 
-272 57 0 
-274 61 0 
-276 65 0 
-278 69 0 
-280 73 0 
-282 77 0 
-284 81 0 
-286 85 0 
-266 2 0 
-268 6 0 
-270 10 0 
-272 14 0 
-274 18 0 
-276 22 0 
-278 26 0 
-280 30 0 
-282 34 0 
-284 38 0 
-286 42 0 
-266 47 0 
-268 51 0 
-270 55 0 
-272 59 0 
-274 63 0 
-276 67 0 
-278 71 0 
-280 75 0 
-282 79 0 
-284 83 0 
-286 87 0 
-266 48 0 
-268 52 0 
-270 56 0 
-272 60 0 
-274 64 0 
-276 68 0 
-278 72 0 
-280 76 0 
-282 80 0 
-284 84 0 
-286 88 0 
-288 45 0 
-290 49 0 
-292 53 0 
-294 57 0 
-296 61 0 
-298 65 0 
-300 69 0 
-302 73 0 
-304 77 0 
-306 81 0 
-308 85 0 
-288 46 0 
-290 50 0 
-292 54 0 
-294 58 0 
-296 62 0 
-298 66 0 
-300 70 0 
-302 74 0 
-304 78 0 
-306 82 0 
-308 86 0 
-288 3 0 
-290 7 0 
-292 11 0 
-294 15 0 
-296 19 0 
-298 23 0 
-300 27 0 
-302 31 0 
-304 35 0 
-306 39 0 
-308 43 0 
-288 4 0 
-290 8 0 
-292 12 0 
-294 16 0 
-296 20 0 
-298 24 0 
-300 28 0 
-302 32 0 
-304 36 0 
-306 40 0 
-308 44 0 
-321 45 0 
-323 49 0 
-325 53 0 
-327 57 0 
-329 61 0 
-331 65 0 
-333 69 0 
-335 73 0 
-337 77 0 
-339 81 0 
-341 85 0 
-321 46 0 
-323 50 0 
-325 54 0 
-327 58 0 
-329 62 0 
-331 66 0 
-333 70 0 
-335 74 0 
-337 78 0 
-339 82 0 
-341 86 0 
-321 47 0 
-323 51 0 
-325 55 0 
-327 59 0 
-329 63 0 
-331 67 0 
-333 71 0 
-335 75 0 
-337 79 0 
-339 83 0 
-341 87 0 
-321 4 0 
-323 8 0 
-325 12 0 
-327 16 0 
-329 20 0 
-331 24 0 
-333 28 0 
-335 32 0 
-337 36 0 
-339 40 0 
-341 44 0 
